/*Objective function*/
min: 12 q1 + 14 q2 + 16 q3 + 18 q4 + 2 s1 + 2 s2 + 2 s3 + 2 s4 + 10 r1 + 12 r2 + 14 r3 + 16 r4;

/*consraints*/
q1 + r1 - s1 = 100; 
s1 + q2 + r2 - s2 = 200;
s2 + q3 + r3 - s3 = 150;
s3 + q4 + r4 - s4 = 400; 

q1 <= 150;
q2 <= 150;
q3 <= 150;
q4 <= 150;

r1 <= 1000 b1;
r2 <= 1000 b2;
r3 <= 1000 b3;
r4 <= 1000 b4;

q1 >= 150 b1;
q2 >= 150 b2;
q3 >= 150 b3;
q4 >= 150 b4;

b1 <= 1;
b2 <= 1;
b3 <= 1;
b4 <= 1;
int b1, b2, b3, b4;